TCS_Benchmarks/redos_fix/snort1_output_distinct_2799_2798_1_0.txt
[^\n\r]*
([^\n\r]*)([cC][iI][rR][eE][sS][tT][rR][iI][cC][tT][iI][oO][nN])([^\n\r]*)
[^\n\r]*